(set-info :source Astral)
(set-info :status unsat)

(declare-sort Loc 0)
(declare-heap (Loc Loc))

(declare-const x Loc)
(declare-const y Loc)
(declare-const z Loc)

(assert
  (septraction
    (pto x y)
    (ls y z)
  )
)

(check-sat)
